33D32945 STP File, STP Format Version 1.0

SECTION Comments
Name "edge_n10_d5_s23"
Problem "Euclidean Steiner Tree Problem"
Remark "Generated with STPGenerator. 5 dimensions."
END

SECTION Graph
Nodes 10
END

SECTION Coordinates
DDDDD 0 0.7275817463 0.7275817463 0.7275817463 0.7275817463 0.7275817463
DDDDD 1 0.4842158102 0.4842158102 0.4842158102 0.4842158102 0.4842158102
DDDDD 2 0.9432684327 0.9432684327 0.9432684327 0.9432684327 0.9432684327
DDDDD 3 0.3444002356 0.3444002356 0.3444002356 0.3444002356 0.3444002356
DDDDD 4 0.4630026335 0.4630026335 0.4630026335 0.4630026335 0.4630026335
DDDDD 5 0.5578971945 0.5578971945 0.5578971945 0.5578971945 0.5578971945
DDDDD 6 0.2818813474 0.2818813474 0.2818813474 0.2818813474 0.2818813474
DDDDD 7 0.2621717841 0.2621717841 0.2621717841 0.2621717841 0.2621717841
DDDDD 8 0.5012496633 0.5012496633 0.5012496633 0.5012496633 0.5012496633
DDDDD 9 0.9217083640 0.9217083640 0.9217083640 0.9217083640 0.9217083640
END
